Si 
 1.0000000000000000
    30.9840000000000018    0.0000000000000000    0.0000000000000000
   -15.4920000000000009   26.8329311108570465    0.0000000000000000
     0.0000000000000000    0.0000000000000000   30.0000000000000000
 Si 
 128
Direct
  0.0416666666666667  0.0833333333333333  0.5076466330506095
  0.7083333333333334  0.7916666666666666  0.4923533669493905
  0.6666666666666666  0.8333333333333333  0.5076466330506095
  0.7083333333333333  0.6666666666666665  0.4923533669493905
  0.6666666666666665  0.7083333333333331  0.5076466330506095
  0.7083333333333334  0.5416666666666666  0.4923533669493905
  0.6666666666666665  0.5833333333333333  0.5076466330506095
  0.7083333333333334  0.4166666666666666  0.4923533669493905
  0.6666666666666666  0.4583333333333333  0.5076466330506095
  0.7083333333333333  0.2916666666666666  0.4923533669493905
  0.6666666666666665  0.3333333333333333  0.5076466330506095
  0.7083333333333334  0.1666666666666666  0.4923533669493905
  0.6666666666666666  0.2083333333333333  0.5076466330506095
  0.7083333333333333  0.0416666666666667  0.4923533669493905
  0.6666666666666665  0.9583333333333333  0.5076466330506095
  0.6666666666666666  0.0833333333333333  0.5076466330506095
  0.5416666666666666  0.9583333333333333  0.5076466330506095
  0.5833333333333334  0.7916666666666666  0.4923533669493905
  0.5416666666666666  0.8333333333333333  0.5076466330506095
  0.5833333333333333  0.6666666666666665  0.4923533669493905
  0.5416666666666665  0.7083333333333331  0.5076466330506095
  0.5833333333333334  0.5416666666666666  0.4923533669493905
  0.5416666666666666  0.5833333333333333  0.5076466330506095
  0.5833333333333334  0.4166666666666666  0.4923533669493905
  0.5416666666666666  0.4583333333333333  0.5076466330506095
  0.5833333333333333  0.2916666666666666  0.4923533669493905
  0.5416666666666665  0.3333333333333333  0.5076466330506095
  0.5833333333333334  0.1666666666666666  0.4923533669493905
  0.5416666666666666  0.2083333333333333  0.5076466330506095
  0.5833333333333334  0.9166666666666666  0.4923533669493905
  0.5833333333333333  0.0416666666666667  0.4923533669493905
  0.7083333333333334  0.9166666666666666  0.4923533669493905
  0.8333333333333331  0.0416666666666667  0.4923533669493905
  0.9583333333333331  0.7916666666666666  0.4923533669493905
  0.9166666666666666  0.8333333333333333  0.5076466330506095
  0.9583333333333331  0.6666666666666665  0.4923533669493905
  0.9166666666666665  0.7083333333333331  0.5076466330506095
  0.9583333333333333  0.5416666666666666  0.4923533669493905
  0.9166666666666666  0.5833333333333333  0.5076466330506095
  0.9583333333333331  0.4166666666666666  0.4923533669493905
  0.9166666666666666  0.4583333333333333  0.5076466330506095
  0.9583333333333331  0.2916666666666666  0.4923533669493905
  0.9166666666666665  0.3333333333333333  0.5076466330506095
  0.9583333333333333  0.1666666666666666  0.4923533669493905
  0.9166666666666666  0.2083333333333333  0.5076466330506095
  0.9583333333333331  0.0416666666666667  0.4923533669493905
  0.7916666666666666  0.0833333333333333  0.5076466330506095
  0.9166666666666666  0.0833333333333333  0.5076466330506095
  0.7916666666666665  0.9583333333333333  0.5076466330506095
  0.8333333333333333  0.7916666666666666  0.4923533669493905
  0.7916666666666666  0.8333333333333333  0.5076466330506095
  0.8333333333333331  0.6666666666666665  0.4923533669493905
  0.7916666666666665  0.7083333333333331  0.5076466330506095
  0.8333333333333333  0.5416666666666666  0.4923533669493905
  0.7916666666666665  0.5833333333333333  0.5076466330506095
  0.8333333333333333  0.4166666666666666  0.4923533669493905
  0.7916666666666666  0.4583333333333333  0.5076466330506095
  0.8333333333333331  0.2916666666666666  0.4923533669493905
  0.7916666666666665  0.3333333333333333  0.5076466330506095
  0.8333333333333333  0.1666666666666666  0.4923533669493905
  0.7916666666666666  0.2083333333333333  0.5076466330506095
  0.8333333333333333  0.9166666666666666  0.4923533669493905
  0.5416666666666666  0.0833333333333333  0.5076466330506095
  0.4583333333333333  0.9166666666666666  0.4923533669493905
  0.4166666666666666  0.9583333333333333  0.5076466330506095
  0.1666666666666667  0.8333333333333333  0.5076466330506095
  0.2083333333333332  0.6666666666666665  0.4923533669493905
  0.1666666666666665  0.7083333333333331  0.5076466330506095
  0.2083333333333333  0.5416666666666666  0.4923533669493905
  0.1666666666666666  0.5833333333333333  0.5076466330506095
  0.2083333333333333  0.4166666666666666  0.4923533669493905
  0.1666666666666667  0.4583333333333333  0.5076466330506095
  0.2083333333333333  0.2916666666666666  0.4923533669493905
  0.1666666666666666  0.3333333333333333  0.5076466330506095
  0.2083333333333333  0.1666666666666666  0.4923533669493905
  0.1666666666666666  0.2083333333333333  0.5076466330506095
  0.2083333333333333  0.0416666666666667  0.4923533669493905
  0.1666666666666666  0.0833333333333333  0.5076466330506095
  0.2083333333333333  0.7916666666666666  0.4923533669493905
  0.0833333333333333  0.9166666666666666  0.4923533669493905
  0.0833333333333333  0.7916666666666666  0.4923533669493905
  0.0416666666666667  0.8333333333333333  0.5076466330506095
  0.0833333333333332  0.6666666666666665  0.4923533669493905
  0.0416666666666666  0.7083333333333331  0.5076466330506095
  0.0833333333333333  0.5416666666666666  0.4923533669493905
  0.0416666666666666  0.5833333333333333  0.5076466330506095
  0.0833333333333333  0.4166666666666666  0.4923533669493905
  0.0416666666666667  0.4583333333333333  0.5076466330506095
  0.0833333333333333  0.2916666666666666  0.4923533669493905
  0.0416666666666666  0.3333333333333333  0.5076466330506095
  0.0833333333333333  0.1666666666666666  0.4923533669493905
  0.0416666666666667  0.2083333333333333  0.5076466330506095
  0.0833333333333333  0.0416666666666667  0.4923533669493905
  0.0416666666666666  0.9583333333333333  0.5076466330506095
  0.1666666666666666  0.9583333333333333  0.5076466330506095
  0.2083333333333333  0.9166666666666666  0.4923533669493905
  0.2916666666666667  0.0833333333333333  0.5076466330506095
  0.4583333333333333  0.7916666666666666  0.4923533669493905
  0.4166666666666666  0.8333333333333333  0.5076466330506095
  0.4583333333333332  0.6666666666666665  0.4923533669493905
  0.4166666666666665  0.7083333333333331  0.5076466330506095
  0.4583333333333333  0.5416666666666666  0.4923533669493905
  0.4166666666666666  0.5833333333333333  0.5076466330506095
  0.4583333333333333  0.4166666666666666  0.4923533669493905
  0.4166666666666666  0.4583333333333333  0.5076466330506095
  0.4583333333333333  0.2916666666666666  0.4923533669493905
  0.4166666666666666  0.3333333333333333  0.5076466330506095
  0.4583333333333333  0.1666666666666666  0.4923533669493905
  0.4166666666666666  0.2083333333333333  0.5076466330506095
  0.4583333333333333  0.0416666666666667  0.4923533669493905
  0.4166666666666666  0.0833333333333333  0.5076466330506095
  0.3333333333333333  0.9166666666666666  0.4923533669493905
  0.2916666666666666  0.9583333333333333  0.5076466330506095
  0.3333333333333333  0.7916666666666666  0.4923533669493905
  0.2916666666666667  0.8333333333333333  0.5076466330506095
  0.3333333333333332  0.6666666666666665  0.4923533669493905
  0.2916666666666666  0.7083333333333331  0.5076466330506095
  0.3333333333333333  0.5416666666666666  0.4923533669493905
  0.2916666666666666  0.5833333333333333  0.5076466330506095
  0.3333333333333333  0.4166666666666666  0.4923533669493905
  0.2916666666666667  0.4583333333333333  0.5076466330506095
  0.3333333333333333  0.2916666666666666  0.4923533669493905
  0.2916666666666666  0.3333333333333333  0.5076466330506095
  0.3333333333333333  0.1666666666666666  0.4923533669493905
  0.2916666666666666  0.2083333333333333  0.5076466330506095
  0.3333333333333333  0.0416666666666667  0.4923533669493905
  0.9166666666666666  0.9583333333333333  0.5076466330506095
  0.9583333333333333  0.9166666666666666  0.4923533669493905
