As Ga Mn 
 1.0000000000000000
     0.0000000000000000   11.4703600363241005   11.4703600363241005
    11.4703600363241005    0.0000000000000000   11.4703600363241005
    11.4703600363241005   11.4703600363241005    0.0000000000000000
 As  Ga  Mn 
  64  60   4
Direct
  0.8125000000000000  0.8125000000000000  0.8125000000000000
  0.3125000000000000  0.8125000000000000  0.0625000000000000
  0.3124999999999999  0.5625000000000000  0.8125000000000000
  0.3125000000000000  0.5625000000000001  0.5624999999999999
  0.3125000000000000  0.5624999999999999  0.3125000000000000
  0.3124999999999999  0.5625000000000000  0.0625000000000001
  0.3124999999999999  0.3124999999999999  0.8125000000000000
  0.3125000000000000  0.3125000000000000  0.5624999999999999
  0.3125000000000000  0.3125000000000000  0.3125000000000000
  0.3125000000000000  0.3125000000000000  0.0625000000000000
  0.3125000000000001  0.0625000000000001  0.8124999999999999
  0.3124999999999999  0.0625000000000001  0.5625000000000000
  0.3125000000000000  0.0625000000000000  0.3125000000000000
  0.3125000000000000  0.0625000000000000  0.0625000000000000
  0.3124999999999999  0.8124999999999999  0.3125000000000001
  0.0624999999999999  0.8125000000000000  0.8125000000000000
  0.0625000000000000  0.8125000000000000  0.3125000000000000
  0.0625000000000000  0.8125000000000000  0.0625000000000000
  0.0624999999999999  0.5625000000000000  0.8125000000000000
  0.0624999999999999  0.5624999999999998  0.5625000000000001
  0.0625000000000001  0.5625000000000000  0.3124999999999999
  0.0625000000000000  0.5625000000000001  0.0625000000000000
  0.0625000000000001  0.3125000000000001  0.8124999999999999
  0.0625000000000001  0.3124999999999999  0.5625000000000000
  0.0625000000000000  0.3125000000000000  0.3125000000000000
  0.0625000000000000  0.3125000000000000  0.0625000000000000
  0.0625000000000001  0.0625000000000001  0.8124999999999999
  0.0624999999999999  0.0624999999999999  0.5625000000000001
  0.0625000000000000  0.0625000000000000  0.3125000000000000
  0.0624999999999999  0.8124999999999999  0.5625000000000001
  0.3124999999999999  0.8125000000000000  0.5625000000000000
  0.3124999999999999  0.8125000000000000  0.8125000000000000
  0.5625000000000001  0.0625000000000000  0.0625000000000000
  0.8125000000000000  0.8125000000000000  0.3124999999999999
  0.8125000000000000  0.8125000000000000  0.0624999999999999
  0.8125000000000000  0.5625000000000000  0.8125000000000000
  0.8124999999999999  0.5624999999999998  0.5625000000000001
  0.8125000000000000  0.5625000000000000  0.3124999999999999
  0.8125000000000000  0.5625000000000001  0.0625000000000000
  0.8125000000000000  0.3124999999999999  0.8125000000000000
  0.8125000000000000  0.3124999999999999  0.5625000000000000
  0.8124999999999999  0.3124999999999999  0.3125000000000001
  0.8125000000000000  0.3125000000000000  0.0625000000000000
  0.8125000000000000  0.0624999999999999  0.8125000000000000
  0.8124999999999999  0.0624999999999999  0.5625000000000001
  0.8125000000000000  0.0625000000000000  0.3125000000000000
  0.8125000000000000  0.0625000000000000  0.0625000000000000
  0.5625000000000000  0.8125000000000000  0.8125000000000000
  0.5624999999999998  0.8124999999999999  0.5625000000000001
  0.5625000000000000  0.8125000000000000  0.3124999999999999
  0.5625000000000001  0.8125000000000000  0.0625000000000000
  0.5625000000000000  0.5625000000000000  0.8125000000000000
  0.5625000000000000  0.5625000000000000  0.5625000000000000
  0.5625000000000000  0.5625000000000000  0.3124999999999999
  0.5625000000000000  0.5625000000000000  0.0625000000000001
  0.5625000000000000  0.3124999999999999  0.8125000000000000
  0.5625000000000001  0.3125000000000000  0.5624999999999999
  0.5624999999999999  0.3125000000000000  0.3125000000000000
  0.5625000000000000  0.3124999999999999  0.0625000000000001
  0.5625000000000000  0.0624999999999999  0.8125000000000000
  0.5624999999999998  0.0624999999999999  0.5625000000000001
  0.5625000000000000  0.0625000000000001  0.3124999999999999
  0.0625000000000000  0.0625000000000000  0.0625000000000000
  0.8125000000000000  0.8125000000000000  0.5625000000000000
  0.0000000000000000  0.0000000000000000 -0.0000000000000000
  0.7500000000000000  0.7500000000000000  0.2500000000000001
  0.2500000000000000  0.7500000000000000 -0.0000000000000000
  0.2500000000000001  0.5000000000000001  0.7500000000000000
  0.2499999999999999  0.4999999999999999  0.5000000000000001
  0.2500000000000000  0.4999999999999999  0.2500000000000001
  0.2500000000000000  0.5000000000000000 -0.0000000000000000
  0.2500000000000001  0.2500000000000001  0.7500000000000000
  0.2500000000000001  0.2500000000000001  0.4999999999999999
  0.2500000000000000  0.2500000000000000  0.2500000000000000
  0.2500000000000000  0.2500000000000000 -0.0000000000000000
  0.2499999999999999 -0.0000000000000002  0.7500000000000001
  0.2500000000000000  0.0000000000000000  0.5000000000000000
  0.2500000000000001  0.0000000000000000  0.2500000000000000
  0.2500000000000000  0.0000000000000000 -0.0000000000000000
  0.0000000000000000  0.7500000000000000  0.7500000000000000
 -0.0000000000000001  0.7500000000000000  0.5000000000000001
 -0.0000000000000000  0.7500000000000000  0.2500000000000001
  0.0000000000000000  0.7500000000000000 -0.0000000000000000
  0.0000000000000000  0.5000000000000001  0.7500000000000000
  0.0000000000000001  0.5000000000000001  0.4999999999999999
  0.0000000000000000  0.4999999999999999  0.2500000000000000
  0.0000000000000000  0.5000000000000000 -0.0000000000000000
 -0.0000000000000002  0.2499999999999999  0.7500000000000001
  0.0000000000000000  0.2500000000000000  0.5000000000000000
  0.0000000000000000  0.2500000000000001  0.2500000000000000
  0.0000000000000000  0.2500000000000000 -0.0000000000000000
  0.0000000000000000  0.0000000000000000  0.7500000000000000
  0.0000000000000000  0.0000000000000000  0.5000000000000000
  0.2500000000000001  0.7500000000000000  0.2500000000000000
  0.7500000000000000  0.7500000000000000  0.5000000000000001
  0.2500000000000000  0.7500000000000000  0.5000000000000000
  0.5000000000000000  0.0000000000000000 -0.0000000000000000
  0.7500000000000000  0.7500000000000000 -0.0000000000000000
  0.7500000000000000  0.5000000000000001  0.7500000000000000
  0.7500000000000001  0.5000000000000001  0.4999999999999999
  0.7500000000000000  0.4999999999999999  0.2500000000000001
  0.7500000000000000  0.5000000000000000 -0.0000000000000000
  0.7500000000000000  0.2500000000000001  0.7500000000000000
  0.7500000000000000  0.2500000000000000  0.5000000000000000
  0.7500000000000000  0.2500000000000001  0.2500000000000000
  0.7500000000000000  0.2500000000000000 -0.0000000000000000
  0.7500000000000000 -0.0000000000000001  0.5000000000000001
  0.7500000000000000 -0.0000000000000000  0.2500000000000001
  0.7500000000000000  0.0000000000000000 -0.0000000000000000
  0.2500000000000001  0.7500000000000000  0.7500000000000000
  0.5000000000000001  0.7500000000000000  0.7500000000000000
  0.4999999999999999  0.7500000000000000  0.2500000000000001
  0.4999999999999999  0.0000000000000000  0.2500000000000000
  0.5000000000000001  0.0000000000000001  0.4999999999999999
  0.5000000000000001  0.0000000000000000  0.7500000000000000
  0.5000000000000000  0.2500000000000000 -0.0000000000000000
  0.4999999999999999  0.2500000000000000  0.2500000000000001
  0.5000000000000001  0.7500000000000001  0.4999999999999999
  0.4999999999999999  0.2499999999999999  0.5000000000000001
  0.5000000000000000  0.5000000000000000  0.2500000000000000
  0.5000000000000000  0.5000000000000000  0.5000000000000000
  0.5000000000000001  0.5000000000000001  0.7500000000000000
  0.5000000000000000  0.7500000000000000 -0.0000000000000000
  0.5000000000000001  0.2500000000000001  0.7500000000000000
  0.5000000000000000  0.5000000000000000 -0.0000000000000000
  0.7500000000000000  0.0000000000000000  0.7500000000000000
  0.0000000000000000  0.0000000000000000  0.2500000000000000
  0.7500000000000000  0.7500000000000000  0.7500000000000000
