GaAs
1.000
   0.000000000000000   2.867590009081025   2.867590009081025
   2.867590009081025   0.000000000000000   2.867590009081025
   2.867590009081025   2.867590009081025   0.000000000000000
Ga As
1 1 
Direct
   0.00000000000000   0.00000000000000   0.00000000000000
   0.25000000000000   0.25000000000000   0.25000000000000